s td 637 8 712
b 1 27 519 675
b 2 47 85 363
b 3 50 173 239
b 4 51 606 612
b 5 56 116 323
b 6 71 203 685
b 7 99 233 248
b 8 101 300 712
b 9 104 350 597
b 10 88 111 466
b 11 38 128 587
b 12 58 139 238 601
b 13 136 159 642
b 14 49 136 642
b 15 134 171 267
b 16 181 387 439
b 17 187 301 497
b 18 194 525 613
b 19 201 204 453
b 20 11 221 573
b 21 83 106 234
b 22 202 235 254
b 23 239 311 475
b 24 87 143 245
b 25 246 451 585
b 26 210 268 599
b 27 189 218 289
b 28 258 297 322
b 29 183 320 328
b 30 116 283
b 31 183 304
b 32 244 299 304
b 33 93 331 700
b 34 339 349 393
b 35 43 199 341
b 36 348 521 551
b 37 24 372 448
b 38 67 381 485
b 39 345 383 499
b 40 401 468 560
b 41 406 411 543
b 42 408 444 495
b 43 198 415 457
b 44 184 420 620
b 45 439 442
b 46 294 441 640
b 47 453 528
b 48 198 598
b 49 176 461 567
b 50 347 463 683
b 51 274 374 479
b 52 34 274 374
b 53 142 380 527
b 54 179 538 571
b 55 543 615
b 56 521 646
b 57 119 169 556
b 58 394 507 557
b 59 179 488
b 60 11 364
b 61 271 504 577
b 62 38 103
b 63 365 594 680
b 64 350 403
b 65 75 403 547 623
b 66 58 547
b 67 75 547 623
b 68 579 602 603
b 69 182 294
b 70 49 414
b 71 157 648 667
b 72 170 443 658
b 73 170 443 689
b 74 14 675
b 75 14 390 464
b 76 483 595 676
b 77 160 347
b 78 48 113 160
b 79 404 693 707
b 80 520 696 710
b 81 295 370 701
b 82 190 616 703
b 83 404 623
b 84 75 623
b 85 75 369
b 86 231 321 369
b 87 2 262 422 619
b 88 16 290 375 589
b 89 24 398 448
b 90 34 196 374
b 91 43 199 244
b 92 48 113 223
b 93 67 103 485
b 94 42 83 106
b 95 85 363 544
b 96 87 143 494
b 97 88 356 466
b 98 93 606 700
b 99 42 106 168
b 100 119 169 206
b 101 134 267 539
b 102 142 212 380
b 103 143 494 534
b 104 157 653 667
b 105 31 653 667
b 106 31 498 653
b 107 60 498 653
b 108 60 498 617
b 109 490 617
b 110 169 206 664
b 111 170 689 692
b 112 176 450 567
b 113 182 216 505
b 114 184 620 663
b 115 115 189 218
b 116 190 193 616
b 117 199 236 244
b 118 202 254 283
b 119 203 564 685
b 120 210 365 599
b 121 115 218 554
b 122 231 321 516
b 123 208 321 516
b 124 208 288 516
b 125 114 233 248
b 126 114 248 384
b 127 114 244 384
b 128 236 244 517
b 129 254 283 466
b 130 155 258 322
b 131 40 262 422
b 132 40 242 422
b 133 40 100 242
b 134 30 100 242
b 135 267 539 624
b 136 271 504 539
b 137 161 283 466
b 138 20 290 589
b 139 295 370 671
b 140 318 370 671
b 141 123 244 299
b 142 301 344 497
b 143 228 344 497
b 144 228 344 394
b 145 344 394 507
b 146 344 467
b 147 219 311 475
b 148 219 315 475
b 149 219 315 517
b 150 214 318 671
b 151 155 322 616
b 152 120 177 338 588
b 153 120 177 261
b 154 177 261 359
b 155 345 478 499
b 156 95 349 393
b 157 95 393 494
b 158 13 95 494
b 159 13 494 534 575
b 160 363 489 544
b 161 365 599 680
b 162 196 374 431
b 163 138 212 380
b 164 244 384 477
b 165 373 390 464
b 166 414 476 673
b 167 442 489 514
b 168 444 495 544
b 169 495 544 611
b 170 197 398 448
b 171 447 451 585
b 172 373 464 649
b 173 161 356 466
b 174 92 309 467
b 175 455 480 533 632
b 176 296 483 595
b 177 103 485 578
b 178 454 488 604
b 179 478 499 520
b 180 503 504 511 569
b 181 504 539 569
b 182 288 410 516
b 183 478 520 710
b 184 400 525 613
b 185 352 364 528
b 186 446 539 624
b 187 275 446 624 674
b 188 446 624 674
b 189 205 446 674
b 190 45 165 540 609
b 191 45 165 167
b 192 165 167 698
b 193 489 544 611
b 194 364 468 560
b 195 358 450 567
b 196 42 579 602
b 197 42 168 602
b 198 42 168 522
b 199 168 354 522
b 200 80 354 522
b 201 80 357
b 202 308 357 559
b 203 447 509 585
b 204 20 287 589
b 205 373 598 686
b 206 581 599 680
b 207 423 581 680
b 208 6 423 581
b 209 6 205
b 210 606 612 700
b 211 398 612 700
b 212 400 548 613
b 213 186 337 615
b 214 155 193 616
b 215 188 620 663
b 216 630 660 661 708
b 217 25 213 618 631
b 218 455 533 627 632
b 219 249 455 533 627
b 220 249 395 455
b 221 109 395 455
b 222 61 272 646
b 223 660 661 677
b 224 582 661 677
b 225 582 677 682
b 226 382 677 682
b 227 73 382 682
b 228 73 536 682
b 229 73 462 536
b 230 462 662
b 231 434 476 662
b 232 205 366 674
b 233 689 692 700
b 234 398 692 700
b 235 230 478 710
b 236 1 35 81 117
b 237 5 343 500 637
b 238 343 410 500 637
b 239 7 303 491 681
b 240 9 113 418 590
b 241 113 418 590 600
b 242 12 153 638 649
b 243 15 425 663 684
b 244 18 172 334 526
b 245 19 211 247 278
b 246 211 247 278 691
b 247 21 28 61 272
b 248 25 213 618 671
b 249 22 29 205 611
b 250 44 319 405 513
b 251 17 28 36 76 137 310 400
b 252 28 36 76 137 291 310 400
b 253 28 36 137 291 310 330 400
b 254 36 291 310 330 400 548
b 255 22 36 291 310 330 548 663
b 256 22 77 291 330 377 548 663
b 257 77 291 330 352 377 663
b 258 77 291 330 352 364
b 259 77 291 330 364 562
b 260 26 77 364 562
b 261 291 330 364 456 562
b 262 330 368 456 562
b 263 364 456 468 562
b 264 352 377 460 663
b 265 188 352 460 663
b 266 22 77 330 377 452 548
b 267 59 77 330 452 548
b 268 59 452 529 548
b 269 59 277 452 529
b 270 77 127 377 452
b 271 22 36 309 310 426 548 663
b 272 22 36 309 310 426 548 565
b 273 22 36 309 310 426 565 672
b 274 22 100 309 565 672
b 275 22 30 100 309
b 276 36 309 310 426 436 565 672
b 277 92 309 436 672
b 278 36 310 426 436 565 568 672
b 279 36 310 426 436 568 672 699
b 280 36 310 426 436 568 650 699
b 281 36 125 310 568 650 699
b 282 125 298 568 699
b 283 125 310 530 650 699
b 284 125 310 314 530
b 285 310 426 436 650 706
b 286 286 426 436 650 706
b 287 286 326 426 650 706
b 288 257 286 326 426 706
b 289 257 269 286 326 426
b 290 207 269 286 426
b 291 257 326 482 706
b 292 286 326 413 650 706
b 293 286 326 379 413
b 294 389 436 568 672 699
b 295 389 429 568 672
b 296 36 240 565 568 672
b 297 36 240 568 654
b 298 22 309 366 426 663 671
b 299 309 366 373 554 663 671
b 300 309 373 554 638 671
b 301 309 373 638 649
b 302 309 561 638 649
b 303 153 561 638 649
b 304 309 531 561 649
b 305 154 554 638 671
b 306 366 373 554 663 686
b 307 373 554 663 684 686
b 308 425 663 684 686
b 309 373 433 663 684
b 310 366 459 554 686
b 311 22 366 426 489 671
b 312 22 366 489 611
b 313 22 205 366 611
b 314 426 474 489 671
b 315 28 137 291 330 501
b 316 28 76 272 291
b 317 28 61 272 291
b 318 17 36 76 137 140 310 400
b 319 17 36 57 76 137 140 310
b 320 17 36 57 76 140 310 336
b 321 36 57 76 140 310 336 651
b 322 36 57 140 336 626 651
b 323 36 140 523 626 651
b 324 36 124 140 523
b 325 523 626 629 651
b 326 57 140 191 626
b 327 57 285 336 626 651
b 328 285 428 626 651
b 329 76 180 310 336 651
b 330 180 310 651 664
b 331 17 57 137 140 417
b 332 137 140 417 465
b 333 17 28 76 137 621
b 334 28 137 329 621
b 335 63 237 566 647
b 336 237 566 647 705
b 337 237 402 647 705
b 338 178 402 647
b 339 178 360 647
b 340 66 109 110 133
b 341 70 572 607 697
b 342 74 161 226 241
b 343 78 188 460 472
b 344 188 352 460 472
b 345 68 84 386 392
b 346 90 277 452 529
b 347 91 163 510 690
b 348 105 312 407 563
b 349 312 351 407 563
b 350 10 39 152 335 474 546 558 669
b 351 39 69 335 474 476 546 558 694
b 352 39 69 135 391 474 476 546 694
b 353 39 135 391 474 476 614 679 694
b 354 39 305 391 474 476 614 679
b 355 103 305 359 396 474 476 614 679
b 356 103 305 359 396 445 474 614 679
b 357 103 280 305 359 396 445 474 614
b 358 103 280 302 305 396 445 474 614
b 359 97 103 280 302 305 396 474 542
b 360 97 302 305 385 396 474 542 552
b 361 97 193 288 385 396 474 542 552
b 362 20 193 288 396 508
b 363 20 150 281 396 508
b 364 20 138 150 281 508
b 365 20 138 150 388 508
b 366 20 46 138 150 388
b 367 20 46 138 355 388
b 368 20 138 355 524
b 369 122 138 355 524
b 370 41 122 355 524
b 371 20 287 355 388
b 372 46 138 150 260 388
b 373 46 86 260 388
b 374 46 138 260 371
b 375 138 150 212 281
b 376 150 281 396 508 692
b 377 150 156 281 508 692
b 378 150 156 493 508 692
b 379 52 493 508 692
b 380 150 156 279 493
b 381 156 493 692 702
b 382 281 396 645 692
b 383 396 553 645 692
b 384 20 193 288 410 508
b 385 193 410 508 637
b 386 193 508 549 637
b 387 97 193 288 385 449 474 542 552
b 388 68 193 288 385 449 474 542 552
b 389 68 193 264 288 385 449 474 552
b 390 68 185 193 264 385 474 552
b 391 68 109 185 193 385 474 552
b 392 68 109 110 185 385 552
b 393 109 110 133 385 552
b 394 68 109 110 185 395
b 395 68 185 325 395
b 396 68 110 392 395
b 397 68 386 392 395
b 398 109 155 185 193 385 474
b 399 109 155 385 474 618
b 400 155 214 474 618 671
b 401 155 214 253 618 671
b 402 213 214 253 618 671
b 403 155 214 474 489 671
b 404 155 214 489 514
b 405 109 385 541 618
b 406 68 288 449 518 542 552
b 407 227 288 518 542 552
b 408 227 542 552 596
b 409 89 97 288 449 542
b 410 89 97 288 709
b 411 302 305 385 474 552 659
b 412 282 302 305 474 659
b 413 178 282 302 474 659
b 414 178 282 360 474
b 415 178 282 302 695
b 416 94 97 103 280 302 396 542
b 417 94 103 132 396
b 418 94 97 280 302 367 542
b 419 94 97 209 367
b 420 94 280 302 367 535
b 421 145 280 302 305 445 614
b 422 145 280 302 445 641
b 423 145 280 302 608 641
b 424 158 280 608 641
b 425 145 608 641 665
b 426 103 280 359 445 578
b 427 23 359 445 679
b 428 103 359 396 476 628 679
b 429 121 359 476 628 679
b 430 121 261 359 628
b 431 121 476 673 679
b 432 103 332 396 476 628
b 433 332 396 434 476
b 434 135 532 614 679 694
b 435 215 532 679 694
b 436 39 69 135 306 391 546
b 437 39 96 306 391 546
b 438 39 96 292 391
b 439 135 250 306 391
b 440 69 81 335 476 546 558 694
b 441 69 81 243 319 335 476 546 694
b 442 79 81 243 319 335 476 643 694
b 443 35 79 81 243 319 335 643
b 444 35 79 243 316 319 335 643
b 445 35 79 224 316 319 335 643
b 446 35 79 126 224 316 319 335
b 447 35 79 126 224 316 335 688
b 448 35 79 126 224 335 570 688
b 449 33 35 79 126 335 570 688
b 450 33 79 112 126 610 688
b 451 33 79 112 358 610
b 452 33 112 149 358 604 610
b 453 37 112 149 358 604 610
b 454 37 55 358 610
b 455 37 149 358 454 604
b 456 37 149 454 470 604
b 457 37 358 454 652
b 458 37 112 149 610 687
b 459 33 112 149 358 604 656
b 460 33 149 229 604 656
b 461 33 200 229 656
b 462 33 112 149 270 656
b 463 33 270 490 656
b 464 112 126 471 610 688
b 465 126 440 471 688
b 466 112 126 471 678
b 467 33 35 126 335 537 570
b 468 33 244 335 537 570
b 469 33 123 244 537 570
b 470 123 537 545 570
b 471 123 515 537 545
b 472 437 515 537 545
b 473 123 515 545 634
b 474 244 335 537 698
b 475 244 335 477 698
b 476 35 126 327 537
b 477 79 224 570 576
b 478 126 224 284 316 688
b 479 224 284 555 688
b 480 79 224 316 484 643
b 481 243 316 502 643
b 482 35 81 117 319
b 483 54 79 243 476 643 694
b 484 54 79 146 243 476 643
b 485 54 146 217 243 643
b 486 54 217 243 293
b 487 54 146 307 476
b 488 79 146 397 476 643
b 489 79 397 643 704
b 490 69 81 243 319 506 546
b 491 81 319 506 513 546
b 492 319 405 506 513
b 493 10 39 152 474 546 558 592 669
b 494 10 152 216 474 487 558 592 669
b 495 216 474 487 505 558 592
b 496 174 474 487 505 558 592
b 497 174 474 487 505 510 592
b 498 98 174 474 510 592
b 499 98 174 474 510 690
b 500 64 98 174 510 690
b 501 98 163 474 510 690
b 502 174 195 487 505 510
b 503 174 505 558 592 625
b 504 10 130 152 216 487 669
b 505 10 130 487 590 669
b 506 102 130 487 590
b 507 10 130 317 590 669
b 508 10 223 317 590 669
b 509 223 317 590 600
b 510 113 223 590 600
b 511 10 223 317 469 669
b 512 10 130 152 216 572
b 513 130 216 572 697
b 514 216 572 607 697
b 515 39 232 546 592
b 516 10 152 230 335 558 669
b 517 152 230 335 478 558
b 518 161 335 478 558
b 519 161 241 335 558
b 520 161 226 241 335
b 521 161 356 478
b 522 115 154 554 638
b 523 35 118 327 537
b 524 39 129 232 592
b 525 107 141 473 549
b 526 107 473 508 549
b 527 107 508 549 637
b 528 122 144 512 524
b 529 41 122 512 524
b 530 147 437 515 537
b 531 427 531 561 649
b 532 162 264 288 449
b 533 167 335 477 698
b 534 197 398 553 586
b 535 398 553 586 645
b 536 180 206 651 664
b 537 33 219 378 517
b 538 10 220 317 469
b 539 213 214 222 253
b 540 247 278 563 691
b 541 225 278 563 691
b 542 151 225 563 691
b 543 151 225 276 435 563
b 544 225 276 435 559 563
b 545 148 435 559 563
b 546 148 407 435 563
b 547 148 351 407 563
b 548 148 435 559 633
b 549 32 151 225 276
b 550 151 276 435 670
b 551 252 261 628 666
b 552 121 261 628 666
b 553 109 256 541 618
b 554 223 263 469 669
b 555 300 416 636 712
b 556 308 435 559 633
b 557 4 251 333 583
b 558 4 251 432 583
b 559 4 251 432 481
b 560 251 266 432 481
b 561 62 251 266 324 481
b 562 62 226 251 266 324
b 563 62 226 266 313 324 399
b 564 226 266 313 324 399 644
b 565 226 266 296 324 399 644
b 566 192 226 266 296 644
b 567 192 226 266 335 644
b 568 192 226 266 335
b 569 192 266 335 509
b 570 192 273 335 509
b 571 192 265 266 509
b 572 164 192 265 509
b 573 296 324 399 595
b 574 255 313 399 644
b 575 62 175 313 324 399
b 576 53 62 175 313
b 577 82 172 334 526
b 578 82 166 172 526
b 579 82 166 172 712
b 580 166 172 416 712
b 581 172 416 636 712
b 582 149 340 470 604
b 583 89 97 342 709
b 584 259 361 362 438
b 585 196 259 362 438
b 586 196 259 362 431
b 587 259 431 487
b 588 102 431 487
b 589 33 123 378 517
b 590 33 123 244 517
b 591 398 553 645 692
b 592 409 523 629 651
b 593 257 326 412 482
b 594 419 440 471 688
b 595 421 505 558 655
b 596 505 558 625 655
b 597 65 376 430 450
b 598 65 358 376 450
b 599 65 172 358 376
b 600 172 358 376 636
b 601 65 172 376 584
b 602 447 509 605 639
b 603 366 458 459 686
b 604 303 337 491 681
b 605 303 337 639 681
b 606 303 550 639 681
b 607 266 550 639 681
b 608 265 266 509 550 639
b 609 265 509 550 605 639
b 610 265 346 509 550 605 685
b 611 265 346 509 564 685
b 612 131 265 346 564
b 613 346 550 593 605 685
b 614 346 424 593 685
b 615 303 337 486 639
b 616 3 303 337 486
b 617 186 337 486 639
b 618 303 486 635 639
b 619 112 149 492 687
b 620 494 515 534 575
b 621 98 163 496 690
b 622 193 410 500 637
b 623 515 534 575 634
b 624 123 515 575 634
b 625 178 302 574 695
b 626 37 591 610 687
b 627 37 454 470 622
b 628 148 356
b 629 195 487 510 711
b 630 8 108 172 668
b 631 65 108 172 584 668
b 632 65 172 584 668
b 633 172 353 584 668
b 634 65 72 108 584 668
b 635 72 108 657 668
b 636 65 72 108 580
b 637 79 358 636
1 74
2 95
3 23
4 210
5 30
6 119
7 125
8 555
9 64
10 97
11 62
12 66
13 14
14 70
15 101
16 45
17 142
18 184
19 47
20 60
21 94
22 118
23 147
24 96
25 171
26 120
27 115
28 130
29 31
30 137
31 32
32 141
33 98
34 156
35 91
36 56
37 89
38 93
39 155
40 194
41 55
42 168
43 48
44 114
45 167
46 69
47 185
48 205
49 112
50 77
51 52
52 90
53 102
54 59
55 213
56 222
57 100
58 145
59 178
60 258
61 136
62 355
63 161
64 65
65 67
66 67
67 84
68 196
69 113
70 166
71 104
72 73
73 111
74 75
75 165
76 176
77 78
78 92
79 83
80 183
81 139
82 116
83 84
84 85
85 86
86 122
87 131
88 138
89 170
90 162
91 117
92 510
93 177
94 99
95 160
96 103
97 173
98 210
99 198
100 110
101 135
102 163
103 620
104 105
105 106
106 107
107 108
108 109
109 463
110 536
111 233
112 195
113 495
114 215
115 121
116 214
117 128
118 129
119 611
120 161
121 522
122 123
123 124
124 182
125 126
126 127
127 164
128 590
129 137
130 151
131 132
132 133
133 134
134 275
135 186
136 181
137 173
138 204
139 140
140 150
141 469
142 143
143 144
144 145
145 146
146 174
147 148
148 149
149 537
150 400
151 214
152 153
153 154
154 430
155 179
156 157
157 158
158 159
159 620
160 193
161 206
162 586
163 375
164 475
165 172
166 431
167 404
168 169
169 193
170 534
171 203
172 301
173 521
174 277
175 218
176 573
177 426
178 455
179 183
180 181
181 186
182 384
183 235
184 212
185 258
186 188
187 188
188 189
189 232
190 191
191 192
192 533
193 312
194 263
195 598
196 197
197 198
198 199
199 200
200 201
201 202
202 556
203 602
204 371
205 306
206 207
207 208
208 209
209 313
210 211
211 234
212 254
213 617
214 398
215 265
216 223
217 248
218 219
219 220
220 221
221 394
222 317
223 224
224 225
225 226
226 227
227 228
228 229
229 230
230 231
231 433
232 313
233 234
234 591
235 517
236 482
237 238
238 622
239 604
240 241
241 510
242 303
243 308
244 577
245 246
246 540
247 317
248 402
249 313
250 492
251 252
251 318
251 333
252 253
252 316
253 254
253 315
254 255
255 256
255 271
256 257
256 266
257 258
257 264
258 259
259 260
259 261
261 262
261 263
264 265
265 344
266 267
266 270
267 268
268 269
269 346
271 272
271 298
272 273
273 274
273 276
274 275
276 277
276 278
278 279
278 296
279 280
279 294
280 281
280 285
281 282
281 283
283 284
285 286
286 287
287 288
287 292
288 289
288 291
289 290
291 593
292 293
294 295
296 297
298 299
298 311
299 300
299 306
300 301
300 305
301 302
302 303
302 304
304 531
305 522
306 307
306 310
307 308
307 309
310 603
311 312
311 314
312 313
314 403
316 317
318 319
319 320
319 331
320 321
321 322
321 329
322 323
322 326
322 327
323 324
323 325
325 592
327 328
329 330
330 536
331 332
333 334
335 336
336 337
337 338
338 339
339 414
340 393
341 514
342 520
343 344
345 397
347 501
348 349
349 547
350 351
350 493
350 516
351 352
351 440
352 353
352 436
353 354
353 434
354 355
355 356
355 428
356 357
356 427
357 358
357 426
358 359
358 421
359 360
359 416
360 361
360 411
361 362
361 387
362 363
362 384
363 364
363 376
364 365
364 375
365 366
366 367
366 372
367 368
367 371
368 369
369 370
370 529
372 373
372 374
376 377
376 382
377 378
378 379
378 380
378 381
382 383
383 591
384 385
385 622
385 386
386 527
387 388
387 409
388 389
388 406
389 532
389 390
390 391
391 392
391 398
392 393
392 394
394 395
394 396
396 397
398 399
399 400
399 405
400 401
400 403
401 402
402 539
403 404
405 553
406 407
407 408
409 410
410 583
411 412
412 413
413 414
413 415
415 625
416 417
416 418
418 419
418 420
421 422
422 423
423 424
423 425
428 429
428 432
429 430
429 431
430 552
432 433
434 435
436 437
436 439
437 438
440 441
441 442
441 490
442 443
442 483
443 444
443 482
444 445
444 481
445 446
445 480
446 447
447 448
447 478
448 449
448 477
449 450
449 467
450 451
450 464
451 637
451 452
452 453
452 459
453 454
453 455
453 458
455 456
455 457
456 582
456 627
458 619
458 626
459 460
459 462
460 461
462 463
464 465
464 466
465 594
467 468
467 476
468 469
468 474
469 590
469 470
470 471
471 472
471 473
472 530
473 624
474 475
475 533
476 523
478 479
483 484
484 485
484 487
484 488
485 486
488 489
490 491
491 492
493 494
493 515
494 495
494 504
495 496
496 497
496 503
497 498
497 502
498 499
499 500
499 501
501 621
502 629
503 596
504 505
504 512
505 506
505 507
506 588
507 508
508 509
508 511
509 510
511 538
511 554
512 513
513 514
515 524
516 517
517 518
518 519
518 521
519 520
520 567
521 628
525 526
526 527
528 529
534 535
535 591
537 589
540 541
541 542
542 543
543 549
543 550
543 544
544 545
545 628
545 546
545 548
546 547
548 556
551 552
555 581
557 558
558 559
559 560
560 561
561 562
562 563
563 575
563 564
564 574
564 565
565 573
565 566
566 567
567 568
568 569
569 570
569 571
571 608
571 572
575 576
577 578
578 579
579 580
580 581
581 600
584 585
585 586
586 587
587 588
589 590
595 596
597 598
598 599
599 601
599 600
600 637
601 631
602 609
604 605
605 615
605 606
606 607
607 608
608 609
609 610
610 611
610 613
611 612
613 614
615 616
615 617
615 618
620 623
623 624
630 631
631 634
631 632
632 633
634 635
634 636
